;--------------------------------------------------------------------------
; Benchmark created with Zazu
; Benchmark: 		euclidex_norm_inv2_3xlen2
; Created:   		2022-01-11 18:12
; Generator of the ideal: 
; 		 -q*r + p*s - p00*s00 + q00*r00
; 		 -b*r - a00*s00 + a*s + b00*r00
; 		 -a*q + a00*q00 - b00*p00 + b*p
; 		 -b00*p*r00 - a*p00*s00 + b00*p00*r + a*q00*r00 + a00*p*s00 - a00*q00*r
; 		 b*q00*r00 + b00*p00*s - b00*q*r00 - b*p00*s00 + a00*q*s00 - a00*q00*s
; Testing invariant: a^8*b^4*b00*p*q^6*r^5*r00*s^4 + a^9*b^4*p*q^6*r^5*s^5 + a^8*b^5*b00*p^2*q^6*r^6*r00*s^5 + a^7*b^5*p*q^4*r^6*s^6 - a^6*a00*b^5*p*q^4*r^6*s^5*s00 - a^6*a00*b^6*p^2*q^4*r^7*s^6*s00 + a^3*a00*b^4*q^2*r^3*s^6*s00 - a^3*b^4*b00*q^2*r^3*r00*s^6 + a^3*b^6*p*q^2*r^5*s^7 - a^8*b^5*p*q^6*r^6*s^4 + a^5*b^5*p*q^4*r^4*s^6 - a^6*b^6*p*q^4*r^7*s^5 - a^3*b^5*b00*p*q^2*r^4*r00*s^7 - a^4*b^4*q^2*r^3*s^7 - a^8*a00*b^4*p*q^6*r^5*s^4*s00 - a^4*b^5*p*q^2*r^4*s^8 - a^6*b^4*p*q^4*r^3*s^7 - a^5*b^4*b00*p*q^4*r^3*r00*s^6 + a^3*b^5*q^2*r^4*s^6 + a^3*a00*b^5*p*q^2*r^4*s^7*s00 + a^5*b^4*q^4*r^3*s^5 - a^6*b^7*p^2*q^4*r^8*s^6 - a^6*b^3*q^4*r^2*s^6 - a^8*a00*b^5*p^2*q^6*r^6*s^5*s00 + a^5*a00*b^3*q^4*r^2*s^5*s00 - a^8*b^6*p^2*q^6*r^7*s^5 + a^6*b^6*b00*p^2*q^4*r^7*r00*s^6 + a^5*a00*b^4*p*q^4*r^3*s^6*s00 + a^7*b^6*p^2*q^4*r^7*s^7 + a^6*b^5*b00*p*q^4*r^6*r00*s^5 - a^5*b^3*b00*q^4*r^2*r00*s^5 + a^9*b^5*p^2*q^6*r^6*s^6
;--------------------------------------------------------------------------

(set-logic NIA)
(set-option :produce-proofs true)

(declare-const p00 Int)
(declare-const a00 Int)
(declare-const q00 Int)
(declare-const b00 Int)
(declare-const r00 Int)
(declare-const s00 Int)

(assert 
	(exists
		((p Int) (a Int) (q Int) (b Int) (r Int) (s Int))
		(and
			(= (+ (- (+ (* (- 1) q r) (* p s)) (* p00 s00)) (* q00 r00)) 0)
			(= (+ (- (* (- 1) b r) (* a00 s00)) (* a s) (* b00 r00)) 0)
			(= (+ (- (+ (* (- 1) a q) (* a00 q00)) (* b00 p00)) (* b p)) 0)
			(= (- (+ (- (* (- 1) b00 p r00) (* a p00 s00)) (* b00 p00 r) (* a q00 r00) (* a00 p s00)) (* a00 q00 r)) 0)
			(= (- (+ (- (+ (* b q00 r00) (* b00 p00 s)) (* b00 q r00) (* b p00 s00)) (* a00 q s00)) (* a00 q00 s)) 0)

			(or
				(not (= (+ (- (+ (- (+ (- (+ (- (+ (- (+ (- (+ (- (+ (* (- a b) (- a b) (- a b) (- a b) (- a b) (- a b) (- a b) (- a b) b b b b b00 (- p q) q q q q q q (- r s) (- r s) (- r s) (- r s) (- r s) r00 s s s s) (* (- a b) (- a b) (- a b) (- a b) (- a b) (- a b) (- a b) (- a b) (- a b) b b b b (- p q) q q q q q q (- r s) (- r s) (- r s) (- r s) (- r s) s s s s s) (* (- a b) (- a b) (- a b) (- a b) (- a b) (- a b) (- a b) (- a b) b b b b b b00 (- p q) (- p q) q q q q q q (- r s) (- r s) (- r s) (- r s) (- r s) (- r s) r00 s s s s s) (* (- a b) (- a b) (- a b) (- a b) (- a b) (- a b) (- a b) b b b b b (- p q) q q q q (- r s) (- r s) (- r s) (- r s) (- r s) (- r s) s s s s s s)) (* (- a b) (- a b) (- a b) (- a b) (- a b) (- a b) a00 b b b b b (- p q) q q q q (- r s) (- r s) (- r s) (- r s) (- r s) (- r s) s s s s s s00) (* (- a b) (- a b) (- a b) (- a b) (- a b) (- a b) a00 b b b b b b (- p q) (- p q) q q q q (- r s) (- r s) (- r s) (- r s) (- r s) (- r s) (- r s) s s s s s s s00)) (* (- a b) (- a b) (- a b) a00 b b b b q q (- r s) (- r s) (- r s) s s s s s s s00)) (* (- a b) (- a b) (- a b) b b b b b00 q q (- r s) (- r s) (- r s) r00 s s s s s s)) (* (- a b) (- a b) (- a b) b b b b b b (- p q) q q (- r s) (- r s) (- r s) (- r s) (- r s) s s s s s s s)) (* (- a b) (- a b) (- a b) (- a b) (- a b) (- a b) (- a b) (- a b) b b b b b (- p q) q q q q q q (- r s) (- r s) (- r s) (- r s) (- r s) (- r s) s s s s)) (* (- a b) (- a b) (- a b) (- a b) (- a b) b b b b b (- p q) q q q q (- r s) (- r s) (- r s) (- r s) s s s s s s)) (* (- a b) (- a b) (- a b) (- a b) (- a b) (- a b) b b b b b b (- p q) q q q q (- r s) (- r s) (- r s) (- r s) (- r s) (- r s) (- r s) s s s s s) (* (- a b) (- a b) (- a b) b b b b b b00 (- p q) q q (- r s) (- r s) (- r s) (- r s) r00 s s s s s s s) (* (- a b) (- a b) (- a b) (- a b) b b b b q q (- r s) (- r s) (- r s) s s s s s s s) (* (- a b) (- a b) (- a b) (- a b) (- a b) (- a b) (- a b) (- a b) a00 b b b b (- p q) q q q q q q (- r s) (- r s) (- r s) (- r s) (- r s) s s s s s00) (* (- a b) (- a b) (- a b) (- a b) b b b b b (- p q) q q (- r s) (- r s) (- r s) (- r s) s s s s s s s s) (* (- a b) (- a b) (- a b) (- a b) (- a b) (- a b) b b b b (- p q) q q q q (- r s) (- r s) (- r s) s s s s s s s) (* (- a b) (- a b) (- a b) (- a b) (- a b) b b b b b00 (- p q) q q q q (- r s) (- r s) (- r s) r00 s s s s s s)) (* (- a b) (- a b) (- a b) b b b b b q q (- r s) (- r s) (- r s) (- r s) s s s s s s) (* (- a b) (- a b) (- a b) a00 b b b b b (- p q) q q (- r s) (- r s) (- r s) (- r s) s s s s s s s s00) (* (- a b) (- a b) (- a b) (- a b) (- a b) b b b b q q q q (- r s) (- r s) (- r s) s s s s s)) (* (- a b) (- a b) (- a b) (- a b) (- a b) (- a b) b b b b b b b (- p q) (- p q) q q q q (- r s) (- r s) (- r s) (- r s) (- r s) (- r s) (- r s) (- r s) s s s s s s) (* (- a b) (- a b) (- a b) (- a b) (- a b) (- a b) b b b q q q q (- r s) (- r s) s s s s s s) (* (- a b) (- a b) (- a b) (- a b) (- a b) (- a b) (- a b) (- a b) a00 b b b b b (- p q) (- p q) q q q q q q (- r s) (- r s) (- r s) (- r s) (- r s) (- r s) s s s s s s00)) (* (- a b) (- a b) (- a b) (- a b) (- a b) a00 b b b q q q q (- r s) (- r s) s s s s s s00)) (* (- a b) (- a b) (- a b) (- a b) (- a b) (- a b) (- a b) (- a b) b b b b b b (- p q) (- p q) q q q q q q (- r s) (- r s) (- r s) (- r s) (- r s) (- r s) (- r s) s s s s s)) (* (- a b) (- a b) (- a b) (- a b) (- a b) (- a b) b b b b b b b00 (- p q) (- p q) q q q q (- r s) (- r s) (- r s) (- r s) (- r s) (- r s) (- r s) r00 s s s s s s) (* (- a b) (- a b) (- a b) (- a b) (- a b) a00 b b b b (- p q) q q q q (- r s) (- r s) (- r s) s s s s s s s00) (* (- a b) (- a b) (- a b) (- a b) (- a b) (- a b) (- a b) b b b b b b (- p q) (- p q) q q q q (- r s) (- r s) (- r s) (- r s) (- r s) (- r s) (- r s) s s s s s s s) (* (- a b) (- a b) (- a b) (- a b) (- a b) (- a b) b b b b b b00 (- p q) q q q q (- r s) (- r s) (- r s) (- r s) (- r s) (- r s) r00 s s s s s)) (* (- a b) (- a b) (- a b) (- a b) (- a b) b b b b00 q q q q (- r s) (- r s) r00 s s s s s)) (* (- a b) (- a b) (- a b) (- a b) (- a b) (- a b) (- a b) (- a b) (- a b) b b b b b (- p q) (- p q) q q q q q q (- r s) (- r s) (- r s) (- r s) (- r s) (- r s) s s s s s s)) 0))
				(not (= (+ (- (+ (- (+ (- (+ (- (+ (- (+ (- (+ (- (+ (* a a a a a a a a (- b a) (- b a) (- b a) (- b a) b00 p (- q p) (- q p) (- q p) (- q p) (- q p) (- q p) r r r r r r00 (- s r) (- s r) (- s r) (- s r)) (* a a a a a a a a a (- b a) (- b a) (- b a) (- b a) p (- q p) (- q p) (- q p) (- q p) (- q p) (- q p) r r r r r (- s r) (- s r) (- s r) (- s r) (- s r)) (* a a a a a a a a (- b a) (- b a) (- b a) (- b a) (- b a) b00 p p (- q p) (- q p) (- q p) (- q p) (- q p) (- q p) r r r r r r r00 (- s r) (- s r) (- s r) (- s r) (- s r)) (* a a a a a a a (- b a) (- b a) (- b a) (- b a) (- b a) p (- q p) (- q p) (- q p) (- q p) r r r r r r (- s r) (- s r) (- s r) (- s r) (- s r) (- s r))) (* a a a a a a a00 (- b a) (- b a) (- b a) (- b a) (- b a) p (- q p) (- q p) (- q p) (- q p) r r r r r r (- s r) (- s r) (- s r) (- s r) (- s r) s00) (* a a a a a a a00 (- b a) (- b a) (- b a) (- b a) (- b a) (- b a) p p (- q p) (- q p) (- q p) (- q p) r r r r r r r (- s r) (- s r) (- s r) (- s r) (- s r) (- s r) s00)) (* a a a a00 (- b a) (- b a) (- b a) (- b a) (- q p) (- q p) r r r (- s r) (- s r) (- s r) (- s r) (- s r) (- s r) s00)) (* a a a (- b a) (- b a) (- b a) (- b a) b00 (- q p) (- q p) r r r r00 (- s r) (- s r) (- s r) (- s r) (- s r) (- s r))) (* a a a (- b a) (- b a) (- b a) (- b a) (- b a) (- b a) p (- q p) (- q p) r r r r r (- s r) (- s r) (- s r) (- s r) (- s r) (- s r) (- s r))) (* a a a a a a a a (- b a) (- b a) (- b a) (- b a) (- b a) p (- q p) (- q p) (- q p) (- q p) (- q p) (- q p) r r r r r r (- s r) (- s r) (- s r) (- s r))) (* a a a a a (- b a) (- b a) (- b a) (- b a) (- b a) p (- q p) (- q p) (- q p) (- q p) r r r r (- s r) (- s r) (- s r) (- s r) (- s r) (- s r))) (* a a a a a a (- b a) (- b a) (- b a) (- b a) (- b a) (- b a) p (- q p) (- q p) (- q p) (- q p) r r r r r r r (- s r) (- s r) (- s r) (- s r) (- s r)) (* a a a (- b a) (- b a) (- b a) (- b a) (- b a) b00 p (- q p) (- q p) r r r r r00 (- s r) (- s r) (- s r) (- s r) (- s r) (- s r) (- s r)) (* a a a a (- b a) (- b a) (- b a) (- b a) (- q p) (- q p) r r r (- s r) (- s r) (- s r) (- s r) (- s r) (- s r) (- s r)) (* a a a a a a a a a00 (- b a) (- b a) (- b a) (- b a) p (- q p) (- q p) (- q p) (- q p) (- q p) (- q p) r r r r r (- s r) (- s r) (- s r) (- s r) s00) (* a a a a (- b a) (- b a) (- b a) (- b a) (- b a) p (- q p) (- q p) r r r r (- s r) (- s r) (- s r) (- s r) (- s r) (- s r) (- s r) (- s r)) (* a a a a a a (- b a) (- b a) (- b a) (- b a) p (- q p) (- q p) (- q p) (- q p) r r r (- s r) (- s r) (- s r) (- s r) (- s r) (- s r) (- s r)) (* a a a a a (- b a) (- b a) (- b a) (- b a) b00 p (- q p) (- q p) (- q p) (- q p) r r r r00 (- s r) (- s r) (- s r) (- s r) (- s r) (- s r))) (* a a a (- b a) (- b a) (- b a) (- b a) (- b a) (- q p) (- q p) r r r r (- s r) (- s r) (- s r) (- s r) (- s r) (- s r)) (* a a a a00 (- b a) (- b a) (- b a) (- b a) (- b a) p (- q p) (- q p) r r r r (- s r) (- s r) (- s r) (- s r) (- s r) (- s r) (- s r) s00) (* a a a a a (- b a) (- b a) (- b a) (- b a) (- q p) (- q p) (- q p) (- q p) r r r (- s r) (- s r) (- s r) (- s r) (- s r))) (* a a a a a a (- b a) (- b a) (- b a) (- b a) (- b a) (- b a) (- b a) p p (- q p) (- q p) (- q p) (- q p) r r r r r r r r (- s r) (- s r) (- s r) (- s r) (- s r) (- s r)) (* a a a a a a (- b a) (- b a) (- b a) (- q p) (- q p) (- q p) (- q p) r r (- s r) (- s r) (- s r) (- s r) (- s r) (- s r)) (* a a a a a a a a a00 (- b a) (- b a) (- b a) (- b a) (- b a) p p (- q p) (- q p) (- q p) (- q p) (- q p) (- q p) r r r r r r (- s r) (- s r) (- s r) (- s r) (- s r) s00)) (* a a a a a a00 (- b a) (- b a) (- b a) (- q p) (- q p) (- q p) (- q p) r r (- s r) (- s r) (- s r) (- s r) (- s r) s00)) (* a a a a a a a a (- b a) (- b a) (- b a) (- b a) (- b a) (- b a) p p (- q p) (- q p) (- q p) (- q p) (- q p) (- q p) r r r r r r r (- s r) (- s r) (- s r) (- s r) (- s r))) (* a a a a a a (- b a) (- b a) (- b a) (- b a) (- b a) (- b a) b00 p p (- q p) (- q p) (- q p) (- q p) r r r r r r r r00 (- s r) (- s r) (- s r) (- s r) (- s r) (- s r)) (* a a a a a a00 (- b a) (- b a) (- b a) (- b a) p (- q p) (- q p) (- q p) (- q p) r r r (- s r) (- s r) (- s r) (- s r) (- s r) (- s r) s00) (* a a a a a a a (- b a) (- b a) (- b a) (- b a) (- b a) (- b a) p p (- q p) (- q p) (- q p) (- q p) r r r r r r r (- s r) (- s r) (- s r) (- s r) (- s r) (- s r) (- s r)) (* a a a a a a (- b a) (- b a) (- b a) (- b a) (- b a) b00 p (- q p) (- q p) (- q p) (- q p) r r r r r r r00 (- s r) (- s r) (- s r) (- s r) (- s r))) (* a a a a a (- b a) (- b a) (- b a) b00 (- q p) (- q p) (- q p) (- q p) r r r00 (- s r) (- s r) (- s r) (- s r) (- s r))) (* a a a a a a a a a (- b a) (- b a) (- b a) (- b a) (- b a) p p (- q p) (- q p) (- q p) (- q p) (- q p) (- q p) r r r r r r (- s r) (- s r) (- s r) (- s r) (- s r) (- s r))) 0))
			)
		)
	)
)
(check-sat)
(get-proof)
(exit)
